p edge 144 1280
v 1 210
v 2 214
v 3 385
v 4 262
v 5 429
v 6 343
v 7 298
v 8 353
v 9 391
v 10 401
v 11 447
v 12 550
v 13 560
v 14 287
v 15 306
v 16 270
v 17 298
v 18 401
v 19 395
v 20 315
v 21 504
v 22 526
v 23 453
v 24 365
v 25 274
v 26 695
v 27 346
v 28 560
v 29 552
v 30 679
v 31 509
v 32 650
v 33 689
v 34 433
v 35 655
v 36 281
v 37 324
v 38 475
v 39 320
v 40 510
v 41 424
v 42 666
v 43 656
v 44 366
v 45 380
v 46 685
v 47 607
v 48 337
v 49 456
v 50 591
v 51 207
v 52 600
v 53 639
v 54 344
v 55 528
v 56 572
v 57 269
v 58 667
v 59 484
v 60 583
v 61 365
v 62 582
v 63 594
v 64 642
v 65 663
v 66 232
v 67 209
v 68 699
v 69 361
v 70 569
v 71 334
v 72 269
v 73 518
v 74 205
v 75 485
v 76 470
v 77 562
v 78 631
v 79 231
v 80 550
v 81 214
v 82 652
v 83 566
v 84 703
v 85 287
v 86 374
v 87 531
v 88 485
v 89 627
v 90 560
v 91 323
v 92 572
v 93 659
v 94 574
v 95 299
v 96 263
v 97 310
v 98 387
v 99 220
v 100 268
v 101 478
v 102 626
v 103 240
v 104 226
v 105 615
v 106 386
v 107 433
v 108 638
v 109 591
v 110 567
v 111 526
v 112 616
v 113 537
v 114 465
v 115 699
v 116 379
v 117 360
v 118 553
v 119 585
v 120 216
v 121 609
v 122 517
v 123 674
v 124 502
v 125 536
v 126 467
v 127 543
v 128 551
v 129 641
v 130 224
v 131 301
v 132 472
v 133 597
v 134 541
v 135 658
v 136 396
v 137 287
v 138 357
v 139 592
v 140 373
v 141 653
v 142 445
v 143 206
v 144 527
e 1 2
e 1 3
e 1 4
e 1 5
e 1 6
e 1 7
e 1 8
e 1 9
e 1 10
e 1 11
e 1 12
e 1 23
e 1 84
e 1 96
e 1 106
e 1 124
e 1 135
e 2 3
e 2 4
e 2 5
e 2 6
e 2 7
e 2 8
e 2 9
e 2 10
e 2 11
e 2 13
e 2 24
e 2 38
e 2 56
e 2 66
e 2 77
e 2 85
e 2 97
e 2 107
e 2 114
e 2 125
e 2 136
e 3 4
e 3 5
e 3 6
e 3 7
e 3 8
e 3 9
e 3 10
e 3 11
e 3 25
e 3 32
e 3 39
e 3 57
e 3 67
e 3 78
e 3 86
e 3 126
e 4 5
e 4 6
e 4 7
e 4 8
e 4 9
e 4 10
e 4 11
e 4 15
e 4 34
e 4 49
e 4 59
e 4 69
e 4 88
e 4 99
e 4 138
e 5 6
e 5 7
e 5 8
e 5 9
e 5 10
e 5 11
e 5 26
e 5 40
e 5 50
e 5 70
e 5 100
e 5 109
e 5 127
e 6 7
e 6 8
e 6 9
e 6 10
e 6 11
e 6 16
e 6 27
e 6 60
e 6 71
e 6 79
e 6 89
e 6 116
e 6 128
e 6 139
e 7 8
e 7 9
e 7 10
e 7 11
e 7 17
e 7 28
e 7 41
e 7 51
e 7 61
e 7 72
e 7 90
e 7 101
e 7 110
e 7 117
e 7 129
e 8 9
e 8 10
e 8 11
e 8 18
e 8 35
e 8 42
e 8 63
e 8 73
e 8 80
e 8 103
e 8 112
e 8 119
e 9 10
e 9 11
e 9 19
e 9 43
e 9 52
e 9 74
e 9 81
e 9 92
e 9 120
e 9 141
e 10 11
e 10 21
e 10 31
e 10 37
e 10 45
e 10 53
e 10 64
e 10 83
e 10 104
e 10 113
e 10 122
e 10 132
e 10 143
e 11 22
e 11 46
e 11 54
e 11 75
e 11 94
e 11 105
e 11 133
e 12 13
e 12 14
e 12 15
e 12 16
e 12 17
e 12 18
e 12 19
e 12 20
e 12 21
e 12 22
e 12 23
e 12 84
e 12 96
e 12 106
e 12 124
e 12 135
e 13 14
e 13 15
e 13 16
e 13 17
e 13 18
e 13 19
e 13 20
e 13 21
e 13 22
e 13 24
e 13 38
e 13 56
e 13 66
e 13 77
e 13 85
e 13 97
e 13 107
e 13 114
e 13 125
e 13 136
e 14 15
e 14 16
e 14 17
e 14 18
e 14 19
e 14 20
e 14 21
e 14 22
e 14 33
e 14 48
e 14 58
e 14 68
e 14 87
e 14 98
e 14 108
e 14 115
e 14 137
e 15 16
e 15 17
e 15 18
e 15 19
e 15 20
e 15 21
e 15 22
e 15 34
e 15 49
e 15 59
e 15 69
e 15 88
e 15 99
e 15 138
e 16 17
e 16 18
e 16 19
e 16 20
e 16 21
e 16 22
e 16 27
e 16 60
e 16 71
e 16 79
e 16 89
e 16 116
e 16 128
e 16 139
e 17 18
e 17 19
e 17 20
e 17 21
e 17 22
e 17 28
e 17 41
e 17 51
e 17 61
e 17 72
e 17 90
e 17 101
e 17 110
e 17 117
e 17 129
e 18 19
e 18 20
e 18 21
e 18 22
e 18 35
e 18 42
e 18 63
e 18 73
e 18 80
e 18 103
e 18 112
e 18 119
e 19 20
e 19 21
e 19 22
e 19 43
e 19 52
e 19 74
e 19 81
e 19 92
e 19 120
e 19 141
e 20 21
e 20 22
e 20 30
e 20 36
e 20 44
e 20 82
e 20 93
e 20 121
e 20 131
e 20 142
e 21 22
e 21 31
e 21 37
e 21 45
e 21 53
e 21 64
e 21 83
e 21 104
e 21 113
e 21 122
e 21 132
e 21 143
e 22 46
e 22 54
e 22 75
e 22 94
e 22 105
e 22 133
e 23 24
e 23 25
e 23 26
e 23 27
e 23 28
e 23 29
e 23 30
e 23 31
e 23 84
e 23 96
e 23 106
e 23 124
e 23 135
e 24 25
e 24 26
e 24 27
e 24 28
e 24 29
e 24 30
e 24 31
e 24 38
e 24 56
e 24 66
e 24 77
e 24 85
e 24 97
e 24 107
e 24 114
e 24 125
e 24 136
e 25 26
e 25 27
e 25 28
e 25 29
e 25 30
e 25 31
e 25 32
e 25 39
e 25 57
e 25 67
e 25 78
e 25 86
e 25 126
e 26 27
e 26 28
e 26 29
e 26 30
e 26 31
e 26 40
e 26 50
e 26 70
e 26 100
e 26 109
e 26 127
e 27 28
e 27 29
e 27 30
e 27 31
e 27 60
e 27 71
e 27 79
e 27 89
e 27 116
e 27 128
e 27 139
e 28 29
e 28 30
e 28 31
e 28 41
e 28 51
e 28 61
e 28 72
e 28 90
e 28 101
e 28 110
e 28 117
e 28 129
e 29 30
e 29 31
e 29 62
e 29 91
e 29 102
e 29 111
e 29 118
e 29 130
e 29 140
e 30 31
e 30 36
e 30 44
e 30 82
e 30 93
e 30 121
e 30 131
e 30 142
e 31 37
e 31 45
e 31 53
e 31 64
e 31 83
e 31 104
e 31 113
e 31 122
e 31 132
e 31 143
e 32 33
e 32 34
e 32 35
e 32 36
e 32 37
e 32 39
e 32 57
e 32 67
e 32 78
e 32 86
e 32 126
e 33 34
e 33 35
e 33 36
e 33 37
e 33 48
e 33 58
e 33 68
e 33 87
e 33 98
e 33 108
e 33 115
e 33 137
e 34 35
e 34 36
e 34 37
e 34 49
e 34 59
e 34 69
e 34 88
e 34 99
e 34 138
e 35 36
e 35 37
e 35 42
e 35 63
e 35 73
e 35 80
e 35 103
e 35 112
e 35 119
e 36 37
e 36 44
e 36 82
e 36 93
e 36 121
e 36 131
e 36 142
e 37 45
e 37 53
e 37 64
e 37 83
e 37 104
e 37 113
e 37 122
e 37 132
e 37 143
e 38 39
e 38 40
e 38 41
e 38 42
e 38 43
e 38 44
e 38 45
e 38 46
e 38 47
e 38 56
e 38 66
e 38 77
e 38 85
e 38 97
e 38 107
e 38 114
e 38 125
e 38 136
e 39 40
e 39 41
e 39 42
e 39 43
e 39 44
e 39 45
e 39 46
e 39 47
e 39 57
e 39 67
e 39 78
e 39 86
e 39 126
e 40 41
e 40 42
e 40 43
e 40 44
e 40 45
e 40 46
e 40 47
e 40 50
e 40 70
e 40 100
e 40 109
e 40 127
e 41 42
e 41 43
e 41 44
e 41 45
e 41 46
e 41 47
e 41 51
e 41 61
e 41 72
e 41 90
e 41 101
e 41 110
e 41 117
e 41 129
e 42 43
e 42 44
e 42 45
e 42 46
e 42 47
e 42 63
e 42 73
e 42 80
e 42 103
e 42 112
e 42 119
e 43 44
e 43 45
e 43 46
e 43 47
e 43 52
e 43 74
e 43 81
e 43 92
e 43 120
e 43 141
e 44 45
e 44 46
e 44 47
e 44 82
e 44 93
e 44 121
e 44 131
e 44 142
e 45 46
e 45 47
e 45 53
e 45 64
e 45 83
e 45 104
e 45 113
e 45 122
e 45 132
e 45 143
e 46 47
e 46 54
e 46 75
e 46 94
e 46 105
e 46 133
e 47 55
e 47 65
e 47 76
e 47 95
e 47 123
e 47 134
e 47 144
e 48 49
e 48 50
e 48 51
e 48 52
e 48 53
e 48 54
e 48 55
e 48 58
e 48 68
e 48 87
e 48 98
e 48 108
e 48 115
e 48 137
e 49 50
e 49 51
e 49 52
e 49 53
e 49 54
e 49 55
e 49 59
e 49 69
e 49 88
e 49 99
e 49 138
e 50 51
e 50 52
e 50 53
e 50 54
e 50 55
e 50 70
e 50 100
e 50 109
e 50 127
e 51 52
e 51 53
e 51 54
e 51 55
e 51 61
e 51 72
e 51 90
e 51 101
e 51 110
e 51 117
e 51 129
e 52 53
e 52 54
e 52 55
e 52 74
e 52 81
e 52 92
e 52 120
e 52 141
e 53 54
e 53 55
e 53 64
e 53 83
e 53 104
e 53 113
e 53 122
e 53 132
e 53 143
e 54 55
e 54 75
e 54 94
e 54 105
e 54 133
e 55 65
e 55 76
e 55 95
e 55 123
e 55 134
e 55 144
e 56 57
e 56 58
e 56 59
e 56 60
e 56 61
e 56 62
e 56 63
e 56 64
e 56 65
e 56 66
e 56 77
e 56 85
e 56 97
e 56 107
e 56 114
e 56 125
e 56 136
e 57 58
e 57 59
e 57 60
e 57 61
e 57 62
e 57 63
e 57 64
e 57 65
e 57 67
e 57 78
e 57 86
e 57 126
e 58 59
e 58 60
e 58 61
e 58 62
e 58 63
e 58 64
e 58 65
e 58 68
e 58 87
e 58 98
e 58 108
e 58 115
e 58 137
e 59 60
e 59 61
e 59 62
e 59 63
e 59 64
e 59 65
e 59 69
e 59 88
e 59 99
e 59 138
e 60 61
e 60 62
e 60 63
e 60 64
e 60 65
e 60 71
e 60 79
e 60 89
e 60 116
e 60 128
e 60 139
e 61 62
e 61 63
e 61 64
e 61 65
e 61 72
e 61 90
e 61 101
e 61 110
e 61 117
e 61 129
e 62 63
e 62 64
e 62 65
e 62 91
e 62 102
e 62 111
e 62 118
e 62 130
e 62 140
e 63 64
e 63 65
e 63 73
e 63 80
e 63 103
e 63 112
e 63 119
e 64 65
e 64 83
e 64 104
e 64 113
e 64 122
e 64 132
e 64 143
e 65 76
e 65 95
e 65 123
e 65 134
e 65 144
e 66 67
e 66 68
e 66 69
e 66 70
e 66 71
e 66 72
e 66 73
e 66 74
e 66 75
e 66 76
e 66 77
e 66 85
e 66 97
e 66 107
e 66 114
e 66 125
e 66 136
e 67 68
e 67 69
e 67 70
e 67 71
e 67 72
e 67 73
e 67 74
e 67 75
e 67 76
e 67 78
e 67 86
e 67 126
e 68 69
e 68 70
e 68 71
e 68 72
e 68 73
e 68 74
e 68 75
e 68 76
e 68 87
e 68 98
e 68 108
e 68 115
e 68 137
e 69 70
e 69 71
e 69 72
e 69 73
e 69 74
e 69 75
e 69 76
e 69 88
e 69 99
e 69 138
e 70 71
e 70 72
e 70 73
e 70 74
e 70 75
e 70 76
e 70 100
e 70 109
e 70 127
e 71 72
e 71 73
e 71 74
e 71 75
e 71 76
e 71 79
e 71 89
e 71 116
e 71 128
e 71 139
e 72 73
e 72 74
e 72 75
e 72 76
e 72 90
e 72 101
e 72 110
e 72 117
e 72 129
e 73 74
e 73 75
e 73 76
e 73 80
e 73 103
e 73 112
e 73 119
e 74 75
e 74 76
e 74 81
e 74 92
e 74 120
e 74 141
e 75 76
e 75 94
e 75 105
e 75 133
e 76 95
e 76 123
e 76 134
e 76 144
e 77 78
e 77 79
e 77 80
e 77 81
e 77 82
e 77 83
e 77 85
e 77 97
e 77 107
e 77 114
e 77 125
e 77 136
e 78 79
e 78 80
e 78 81
e 78 82
e 78 83
e 78 86
e 78 126
e 79 80
e 79 81
e 79 82
e 79 83
e 79 89
e 79 116
e 79 128
e 79 139
e 80 81
e 80 82
e 80 83
e 80 103
e 80 112
e 80 119
e 81 82
e 81 83
e 81 92
e 81 120
e 81 141
e 82 83
e 82 93
e 82 121
e 82 131
e 82 142
e 83 104
e 83 113
e 83 122
e 83 132
e 83 143
e 84 85
e 84 86
e 84 87
e 84 88
e 84 89
e 84 90
e 84 91
e 84 92
e 84 93
e 84 94
e 84 95
e 84 96
e 84 106
e 84 124
e 84 135
e 85 86
e 85 87
e 85 88
e 85 89
e 85 90
e 85 91
e 85 92
e 85 93
e 85 94
e 85 95
e 85 97
e 85 107
e 85 114
e 85 125
e 85 136
e 86 87
e 86 88
e 86 89
e 86 90
e 86 91
e 86 92
e 86 93
e 86 94
e 86 95
e 86 126
e 87 88
e 87 89
e 87 90
e 87 91
e 87 92
e 87 93
e 87 94
e 87 95
e 87 98
e 87 108
e 87 115
e 87 137
e 88 89
e 88 90
e 88 91
e 88 92
e 88 93
e 88 94
e 88 95
e 88 99
e 88 138
e 89 90
e 89 91
e 89 92
e 89 93
e 89 94
e 89 95
e 89 116
e 89 128
e 89 139
e 90 91
e 90 92
e 90 93
e 90 94
e 90 95
e 90 101
e 90 110
e 90 117
e 90 129
e 91 92
e 91 93
e 91 94
e 91 95
e 91 102
e 91 111
e 91 118
e 91 130
e 91 140
e 92 93
e 92 94
e 92 95
e 92 120
e 92 141
e 93 94
e 93 95
e 93 121
e 93 131
e 93 142
e 94 95
e 94 105
e 94 133
e 95 123
e 95 134
e 95 144
e 96 97
e 96 98
e 96 99
e 96 100
e 96 101
e 96 102
e 96 103
e 96 104
e 96 105
e 96 106
e 96 124
e 96 135
e 97 98
e 97 99
e 97 100
e 97 101
e 97 102
e 97 103
e 97 104
e 97 105
e 97 107
e 97 114
e 97 125
e 97 136
e 98 99
e 98 100
e 98 101
e 98 102
e 98 103
e 98 104
e 98 105
e 98 108
e 98 115
e 98 137
e 99 100
e 99 101
e 99 102
e 99 103
e 99 104
e 99 105
e 99 138
e 100 101
e 100 102
e 100 103
e 100 104
e 100 105
e 100 109
e 100 127
e 101 102
e 101 103
e 101 104
e 101 105
e 101 110
e 101 117
e 101 129
e 102 103
e 102 104
e 102 105
e 102 111
e 102 118
e 102 130
e 102 140
e 103 104
e 103 105
e 103 112
e 103 119
e 104 105
e 104 113
e 104 122
e 104 132
e 104 143
e 105 133
e 106 107
e 106 108
e 106 109
e 106 110
e 106 111
e 106 112
e 106 113
e 106 124
e 106 135
e 107 108
e 107 109
e 107 110
e 107 111
e 107 112
e 107 113
e 107 114
e 107 125
e 107 136
e 108 109
e 108 110
e 108 111
e 108 112
e 108 113
e 108 115
e 108 137
e 109 110
e 109 111
e 109 112
e 109 113
e 109 127
e 110 111
e 110 112
e 110 113
e 110 117
e 110 129
e 111 112
e 111 113
e 111 118
e 111 130
e 111 140
e 112 113
e 112 119
e 113 122
e 113 132
e 113 143
e 114 115
e 114 116
e 114 117
e 114 118
e 114 119
e 114 120
e 114 121
e 114 122
e 114 123
e 114 125
e 114 136
e 115 116
e 115 117
e 115 118
e 115 119
e 115 120
e 115 121
e 115 122
e 115 123
e 115 137
e 116 117
e 116 118
e 116 119
e 116 120
e 116 121
e 116 122
e 116 123
e 116 128
e 116 139
e 117 118
e 117 119
e 117 120
e 117 121
e 117 122
e 117 123
e 117 129
e 118 119
e 118 120
e 118 121
e 118 122
e 118 123
e 118 130
e 118 140
e 119 120
e 119 121
e 119 122
e 119 123
e 120 121
e 120 122
e 120 123
e 120 141
e 121 122
e 121 123
e 121 131
e 121 142
e 122 123
e 122 132
e 122 143
e 123 134
e 123 144
e 124 125
e 124 126
e 124 127
e 124 128
e 124 129
e 124 130
e 124 131
e 124 132
e 124 133
e 124 134
e 124 135
e 125 126
e 125 127
e 125 128
e 125 129
e 125 130
e 125 131
e 125 132
e 125 133
e 125 134
e 125 136
e 126 127
e 126 128
e 126 129
e 126 130
e 126 131
e 126 132
e 126 133
e 126 134
e 127 128
e 127 129
e 127 130
e 127 131
e 127 132
e 127 133
e 127 134
e 128 129
e 128 130
e 128 131
e 128 132
e 128 133
e 128 134
e 128 139
e 129 130
e 129 131
e 129 132
e 129 133
e 129 134
e 130 131
e 130 132
e 130 133
e 130 134
e 130 140
e 131 132
e 131 133
e 131 134
e 131 142
e 132 133
e 132 134
e 132 143
e 133 134
e 134 144
e 135 136
e 135 137
e 135 138
e 135 139
e 135 140
e 135 141
e 135 142
e 135 143
e 135 144
e 136 137
e 136 138
e 136 139
e 136 140
e 136 141
e 136 142
e 136 143
e 136 144
e 137 138
e 137 139
e 137 140
e 137 141
e 137 142
e 137 143
e 137 144
e 138 139
e 138 140
e 138 141
e 138 142
e 138 143
e 138 144
e 139 140
e 139 141
e 139 142
e 139 143
e 139 144
e 140 141
e 140 142
e 140 143
e 140 144
e 141 142
e 141 143
e 141 144
e 142 143
e 142 144
e 143 144
